VALUE 3438
2 355
3 615
4 264
5 423
6 80
7 329
8 451
9 615
80 147
104 500
147 500
249 252
252 416
264 520
329 589
355 416
416 500
423 508
104 451
500 587
249 508
252 517
500 520
1 587
451 589
517 615

